c n orig vars 103
p cnf 248 545
-154 0
104 -114 0
104 -54 0
-104 114 54 0
105 -84 0
105 -85 0
-105 84 85 0
106 -107 0
106 -112 0
-106 107 112 0
-107 230 0
-107 233 0
107 -230 -233 0
108 -88 0
108 -175 0
108 -176 0
-108 88 175 176 0
109 -86 0
109 -111 0
-109 86 111 0
110 -104 0
110 -85 0
-110 104 85 0
111 -24 0
111 -102 0
111 -29 0
111 -13 0
-111 24 102 29 13 0
-112 232 0
-112 228 0
112 -232 -228 0
113 -93 0
113 -104 0
-113 93 104 0
114 -122 0
114 -121 0
-114 122 121 0
115 -33 0
115 -40 0
115 -39 0
115 -37 0
115 -32 0
-115 33 40 39 37 32 0
116 -34 0
116 -33 0
116 -40 0
116 -39 0
116 -38 0
-116 34 33 40 39 38 0
117 -34 0
117 -33 0
117 -40 0
117 -28 0
117 -26 0
-117 34 33 40 28 26 0
118 -5 0
118 -8 0
-118 5 8 0
119 -117 0
119 -116 0
119 -115 0
-119 117 116 115 0
120 -119 0
120 -118 0
-120 119 118 0
121 -45 0
121 -53 0
121 -49 0
-121 45 53 49 0
122 -116 0
122 -244 0
122 -115 0
-122 116 244 115 0
123 -126 0
123 -137 0
123 -125 0
123 -128 0
-123 126 137 125 128 0
124 -142 0
124 -214 0
124 -207 0
124 -231 0
-124 142 214 207 231 0
125 -127 0
125 -130 0
-125 127 130 0
126 -90 0
126 -89 0
-126 90 89 0
-127 101 0
-127 155 0
127 -101 -155 0
128 -55 0
128 -188 0
-128 55 188 0
129 -91 0
129 -203 0
-129 91 203 0
-130 94 0
-130 162 0
130 -94 -162 0
131 -208 0
131 -241 0
131 -62 0
131 -213 0
-131 208 241 62 213 0
132 -208 0
132 -241 0
132 -62 0
132 -215 0
-132 208 241 62 215 0
133 -134 0
133 -142 0
-133 134 142 0
134 -100 0
134 -129 0
-134 100 129 0
-135 101 0
-135 132 0
135 -101 -132 0
-136 94 0
-136 131 0
136 -94 -131 0
137 -98 0
137 -99 0
-137 98 99 0
138 -135 0
138 -136 0
-138 135 136 0
139 -6 0
139 -5 0
139 -8 0
139 -7 0
139 -10 0
139 -9 0
139 -2 0
-139 6 5 8 7 10 9 2 0
-140 139 0
-140 1 0
140 -139 -1 0
142 -234 0
142 -238 0
142 -165 0
142 -87 0
-142 234 238 165 87 0
143 -134 0
143 -124 0
-143 134 124 0
-144 145 0
-144 146 0
144 -145 -146 0
145 -86 0
145 -24 0
145 -102 0
145 -29 0
145 -21 0
145 -22 0
-145 86 24 102 29 21 22 0
146 -104 0
146 -227 0
-146 104 227 0
-147 113 0
-147 148 0
147 -113 -148 0
148 -92 0
148 -181 0
148 -183 0
-148 92 181 183 0
-149 179 0
-149 180 0
149 -179 -180 0
-150 151 0
-150 152 0
150 -151 -152 0
151 -76 0
151 -77 0
-151 76 77 0
152 -104 0
152 -168 0
-152 104 168 0
153 -205 0
153 -199 0
-153 205 199 0
154 -219 0
154 -222 0
154 -217 0
-154 219 222 217 0
155 -133 0
155 -36 0
-155 133 36 0
-156 102 0
-156 97 0
156 -102 -97 0
157 -86 0
157 -231 0
-157 86 231 0
-158 157 0
-158 96 0
158 -157 -96 0
-159 101 0
-159 132 0
159 -101 -132 0
-160 94 0
-160 131 0
160 -94 -131 0
161 -103 0
161 -246 0
-161 103 246 0
162 -211 0
162 -186 0
162 -143 0
-162 211 186 143 0
163 -221 0
163 -218 0
-163 221 218 0
-164 94 0
-164 163 0
164 -94 -163 0
165 -179 0
165 -111 0
-165 179 111 0
166 -75 0
166 -80 0
-166 75 80 0
167 -74 0
167 -202 0
-167 74 202 0
168 -84 0
168 -85 0
-168 84 85 0
169 -191 0
169 -5 0
169 -79 0
-169 191 5 79 0
170 -169 0
170 -174 0
-170 169 174 0
171 -37 0
171 -31 0
-171 37 31 0
172 -1 0
172 -171 0
-172 1 171 0
173 -123 0
173 -194 0
-173 123 194 0
174 -238 0
174 -214 0
174 -234 0
174 -137 0
174 -87 0
-174 238 214 234 137 87 0
-175 95 0
-175 96 0
175 -95 -96 0
-176 177 0
-176 97 0
176 -177 -97 0
177 -16 0
177 -15 0
177 -95 0
177 -18 0
177 -17 0
177 -20 0
-177 16 15 95 18 17 20 0
-178 179 0
-178 180 0
178 -179 -180 0
179 -188 0
179 -55 0
-179 188 55 0
180 -243 0
180 -193 0
-180 243 193 0
-181 182 0
-181 96 0
181 -182 -96 0
182 -86 0
182 -24 0
182 -102 0
182 -29 0
182 -21 0
182 -22 0
182 -44 0
182 -12 0
182 -11 0
182 -13 0
-182 86 24 102 29 21 22 44 12 11 13 0
-183 184 0
-183 97 0
183 -184 -97 0
184 -16 0
184 -15 0
184 -18 0
184 -17 0
184 -19 0
184 -43 0
184 -44 0
184 -41 0
184 -42 0
184 -20 0
-184 16 15 18 17 19 43 44 41 42 20 0
-238 86 0
-238 161 0
238 -86 -161 0
-186 67 0
-186 104 0
186 -67 -104 0
187 -248 0
187 -35 0
-187 248 35 0
-188 73 0
-188 120 0
188 -73 -120 0
189 -63 0
189 -212 0
189 -196 0
189 -240 0
-189 63 212 196 240 0
190 -70 0
190 -140 0
-190 70 140 0
191 -8 0
191 -83 0
-191 8 83 0
192 -82 0
192 -83 0
-192 82 83 0
193 -5 0
193 -71 0
-193 5 71 0
194 -195 0
194 -5 0
194 -79 0
-194 195 5 79 0
195 -8 0
195 -6 0
195 -83 0
-195 8 6 83 0
196 -199 0
196 -198 0
196 -205 0
-196 199 198 205 0
197 -72 0
197 -74 0
-197 72 74 0
198 -87 0
198 -178 0
-198 87 178 0
-199 109 0
-199 110 0
-199 96 0
199 -109 -110 -96 0
200 -81 0
200 -170 0
-200 81 170 0
201 -164 0
201 -220 0
-201 164 220 0
-202 187 0
-202 66 0
202 -187 -66 0
203 -202 0
203 -197 0
-203 202 197 0
204 -104 0
204 -105 0
-204 104 105 0
-205 204 0
-205 108 0
205 -204 -108 0
206 -144 0
206 -147 0
206 -106 0
206 -226 0
-206 144 147 106 226 0
207 -24 0
207 -21 0
207 -102 0
207 -29 0
207 -12 0
207 -30 0
-207 24 21 102 29 12 30 0
208 -57 0
208 -58 0
-208 57 58 0
209 -69 0
209 -68 0
209 -65 0
209 -64 0
209 -56 0
209 -192 0
-209 69 68 65 64 56 192 0
210 -60 0
210 -61 0
-210 60 61 0
211 -59 0
211 -60 0
-211 59 60 0
212 -27 0
212 -34 0
212 -33 0
-212 27 34 33 0
213 -186 0
213 -210 0
213 -206 0
213 -235 0
-213 186 210 206 235 0
214 -24 0
214 -21 0
214 -102 0
214 -22 0
214 -29 0
214 -30 0
-214 24 21 102 22 29 30 0
215 -23 0
215 -236 0
215 -237 0
-215 23 236 237 0
237 -198 0
237 -167 0
-237 198 167 0
216 -189 0
216 -160 0
216 -159 0
-216 189 160 159 0
-217 201 0
-217 200 0
217 -201 -200 0
218 -87 0
218 -85 0
218 -104 0
-218 87 85 104 0
219 -224 0
219 -225 0
-219 224 225 0
-220 101 0
-220 221 0
220 -101 -221 0
221 -212 0
221 -166 0
221 -239 0
-221 212 166 239 0
-222 223 0
-222 216 0
222 -223 -216 0
223 -78 0
223 -173 0
-223 78 173 0
-224 172 0
-224 209 0
224 -172 -209 0
-225 190 0
-225 138 0
225 -190 -138 0
-226 185 0
-226 141 0
226 -185 -141 0
227 -84 0
227 -85 0
-227 84 85 0
228 -104 0
228 -85 0
-228 104 85 0
229 -84 0
229 -85 0
-229 84 85 0
230 -104 0
230 -229 0
-230 104 229 0
231 -24 0
231 -102 0
231 -29 0
231 -30 0
231 -11 0
231 -21 0
231 -14 0
-231 24 102 29 30 11 21 14 0
232 -231 0
232 -86 0
-232 231 86 0
233 -158 0
233 -156 0
-233 158 156 0
234 -24 0
234 -102 0
234 -29 0
234 -30 0
234 -11 0
-234 24 102 29 30 11 0
235 -87 0
235 -149 0
-235 87 149 0
236 -150 0
236 -153 0
-236 150 153 0
141 -104 0
141 -85 0
-141 104 85 0
185 -86 0
185 -24 0
185 -102 0
185 -29 0
185 -21 0
185 -12 0
-185 86 24 102 29 21 12 0
239 -3 0
239 -53 0
239 -48 0
-239 3 53 48 0
240 -53 0
240 -48 0
240 -47 0
-240 53 48 47 0
241 -53 0
241 -52 0
-241 53 52 0
242 -53 0
242 -49 0
242 -4 0
-242 53 49 4 0
243 -51 0
243 -242 0
243 -122 0
-243 51 242 122 0
244 -34 0
244 -33 0
244 -40 0
244 -28 0
244 -25 0
-244 34 33 40 28 25 0
245 -53 0
245 -49 0
245 -46 0
-245 53 49 46 0
246 -122 0
246 -245 0
-246 122 245 0
247 -50 0
247 -53 0
247 -49 0
-247 50 53 49 0
248 -122 0
248 -247 0
-248 122 247 0
